#P RHF/6-31G stable=opt

HO

-1 1
O 0.00000000 0.00000000 0.00000000
H 0.00000000 0.00000000 3.00000000

